Maximize
  8 x0 - 15 x1 - 27 x2 + 19 x3 + 36 x4 - 17 x5 + 10 x6 - 43 x7 - 33 x8
   - 16 x9 + 28 x10 - 11 x11 - 4 x12 - 45 x13 + 36 x14 + 5 x15 + 2 x16
   - 17 x17 + 3 x18 - 46 x19 + [ 35 x0 ^2 - 12 x0 * x1 - 24 x0 * x2
   - 40 x0 * x3 - 24 x0 * x4 + 54 x0 * x5 - 58 x0 * x6 - 88 x0 * x7
   - 96 x0 * x8 - 12 x0 * x9 + 76 x0 * x10 + 24 x0 * x11 - 62 x0 * x12
   - 44 x0 * x13 + 20 x0 * x14 - 2 x0 * x15 - 20 x0 * x16 - 88 x0 * x17
   - 28 x0 * x18 + 42 x0 * x19 - 34 x1 ^2 + 30 x1 * x2 - 12 x1 * x3
   - 96 x1 * x4 + 86 x1 * x5 + 20 x1 * x6 - 12 x1 * x7 + 94 x1 * x8
   + 82 x1 * x9 + 10 x1 * x10 + 20 x1 * x11 + 30 x1 * x12 + 78 x1 * x13
   - 50 x1 * x14 - 28 x1 * x15 + 94 x1 * x16 - 38 x1 * x17 - 98 x1 * x18
   + 46 x1 * x19 - 7 x2 ^2 - 26 x2 * x3 + 22 x2 * x4 + 72 x2 * x5
   + 52 x2 * x6 - 42 x2 * x7 + 76 x2 * x8 - 44 x2 * x9 + 70 x2 * x10
   - 82 x2 * x11 - 56 x2 * x12 - 88 x2 * x13 - 22 x2 * x14 + 90 x2 * x15
   - 40 x2 * x16 - 98 x2 * x17 - 16 x2 * x18 - 84 x2 * x19 - 22 x3 ^2
   + 88 x3 * x4 - 52 x3 * x5 - 92 x3 * x6 + 2 x3 * x7 - 62 x3 * x8
   + 12 x3 * x9 + 96 x3 * x10 - 48 x3 * x11 - 90 x3 * x12 + 80 x3 * x13
   - 58 x3 * x14 + 80 x3 * x15 + 62 x3 * x16 - 4 x3 * x17 + 42 x3 * x18
   - 74 x3 * x19 + 46 x4 ^2 + 26 x4 * x5 - 98 x4 * x6 + 58 x4 * x7
   - 56 x4 * x8 - 80 x4 * x9 - 58 x4 * x10 + 84 x4 * x11 - 38 x4 * x12
   + 84 x4 * x13 - 54 x4 * x14 - 90 x4 * x15 - 68 x4 * x17 + 60 x4 * x18
   - 64 x4 * x19 + 43 x5 ^2 + 14 x5 * x6 - 28 x5 * x7 + 44 x5 * x8
   - 18 x5 * x9 + 64 x5 * x10 - 38 x5 * x11 - 2 x5 * x12 + 6 x5 * x13
   - 40 x5 * x14 + 48 x5 * x15 + 58 x5 * x16 - 34 x5 * x17 - 68 x5 * x18
   + 90 x5 * x19 + 10 x6 ^2 + 76 x6 * x7 - 52 x6 * x9 - 22 x6 * x10
   - 94 x6 * x11 + 48 x6 * x12 - 36 x6 * x13 + 30 x6 * x14 + 16 x6 * x15
   - 4 x6 * x16 + 16 x6 * x17 + 2 x6 * x18 - 82 x6 * x19 - 8 x7 ^2
   - 74 x7 * x8 - 18 x7 * x9 - 50 x7 * x10 - 14 x7 * x11 + 76 x7 * x12
   - 2 x7 * x14 + 28 x7 * x15 - 38 x7 * x16 + 54 x7 * x17 - 98 x7 * x18
   - 34 x7 * x19 - 16 x8 ^2 - 82 x8 * x9 - 70 x8 * x10 + 6 x8 * x11
   + 36 x8 * x12 - 16 x8 * x13 - 98 x8 * x14 + 82 x8 * x15 + 76 x8 * x16
   + 32 x8 * x18 - 12 x8 * x19 - x9 ^2 + 14 x9 * x10 + 20 x9 * x11
   - 58 x9 * x12 + 64 x9 * x13 + 4 x9 * x14 + 30 x9 * x15 + 88 x9 * x16
   - 38 x9 * x17 - 82 x9 * x18 + 35 x10 ^2 + 78 x10 * x11 - 42 x10 * x12
   + 88 x10 * x13 - 34 x10 * x14 + 90 x10 * x15 - 12 x10 * x16
   - 24 x10 * x17 - 84 x10 * x18 + 58 x10 * x19 + 44 x11 ^2 + 28 x11 * x12
   + 64 x11 * x13 + 44 x11 * x14 + 84 x11 * x15 - 18 x11 * x16
   + 8 x11 * x17 - 50 x11 * x18 + 30 x11 * x19 - 49 x12 ^2 - 20 x12 * x13
   - 32 x12 * x14 - 94 x12 * x15 - 42 x12 * x16 + 74 x12 * x17
   - 40 x12 * x18 - 90 x12 * x19 + 13 x13 ^2 + 28 x13 * x14 + 34 x13 * x15
   + 30 x13 * x16 + 92 x13 * x17 - 84 x13 * x18 - 34 x13 * x19 + 17 x14 ^2
   + 86 x14 * x15 - 20 x14 * x16 + 64 x14 * x17 + 54 x14 * x18
   - 68 x14 * x19 - 45 x15 ^2 - 2 x15 * x16 - 62 x15 * x17 - 4 x15 * x18
   - 74 x15 * x19 - 37 x16 ^2 - 56 x16 * x17 + 32 x16 * x18 + 84 x16 * x19
   - 2 x17 ^2 - 48 x17 * x18 - 86 x17 * x19 + 8 x18 ^2 - 70 x18 * x19
   + 33 x19 ^2 ] / 2 
Subject To
Bounds
 x0 <= 1
 x1 <= 1
 x2 <= 1
 x3 <= 1
 x4 <= 1
 x5 <= 1
 x6 <= 1
 x7 <= 1
 x8 <= 1
 x9 <= 1
 x10 <= 1
 x11 <= 1
 x12 <= 1
 x13 <= 1
 x14 <= 1
 x15 <= 1
 x16 <= 1
 x17 <= 1
 x18 <= 1
 x19 <= 1
End
